# Objective value = 55
WA1n 0
WA1p 0
WA2n 0
WA2p 1
WB1n 1
WB1p 0
WC1n 0
WC1p 1
WD1n 1
WD1p 0
WD2n 1
WD2p 0
WE1n 2
WE1p 0
WF1n 2
WF1p 0
WG1n 2
WG1p 0
WH1n 2
WH1p 0
WI1n 2
WI1p 0
WJ1n 0
WJ1p 2
WK1n 0
WK1p 2
WL1n 0
WL1p 2
WM1n 18
WM1p 0
WM2n 1
WM2p 0
WT1n 10
WT1p 0
WT2n 1
WT2p 0
5 7
a 0
b 1
c 0
d 1
e 0
f 0
g 0
h 0
i 0
j 0
k 0
l 1
m 1
n 1
o 0
p 0
q 0
r 0
